c Sudoku solution
p cnf 729 0
165 0
222 0
264 0
281 0
323 0
358 0
382 0
468 0
474 0
518 0
546 0
629 0
651 0
677 0
695 0
688 0
736 0
616 0
126 0
819 0
825 0
863 0
662 0
886 0
496 0
933 0
413 0
634 0
432 0
535 0
421 0
527 0
489 0
583 0
643 0
554 0
569 0
991 0
571 0
592 0
215 0
375 0
276 0
366 0
956 0
967 0
761 0
852 0
831 0
878 0
897 0
717 0
912 0
772 0
793 0
979 0
844 0
142 0
341 0
111 0
314 0
173 0
253 0
187 0
194 0
399 0
298 0
159 0
247 0
138 0
239 0
337 0
445 0
457 0
948 0
755 0
749 0
784 0
985 0
728 0
924 0
